/*********************************************
    * Lab01 - simple
    * Author: Coso
    * Creation Date: Mar, 2019
    *********************************************/
instance_name = "medium_instance_05_simple";

d = 5;
r = 15;

SCj = [295 284 291 302 273];
Dk = [66 66 49 86 14 65 56 37 89 73 31 50 68 31 21];

Cjk = [[76 54 71 39 68 75 82 68 53 58 84 38 52 30 34]
 [48 84 61 39 37 77 33 89 81 77 56 48 78 89 33]
 [66 70 77 89 81 87 66 59 35 40 35 69 53 78 46]
 [71 82 43 70 60 76 36 42 74 48 43 35 34 63 66]
 [65 45 70 36 62 60 34 67 71 35 53 58 70 80 56]];
